&CONTROL
  calculation = 'bands'
  pseudo_dir = '../pseudo/'
  outdir = './tmp/'
  prefix = 'SiGe'
  tprnfor = .true.
/
&SYSTEM
  ibrav = 4
  a = 3.939                  
  c = 15.0
  nat = 2
  ntyp = 2
  ecutwfc = 60
  nbnd = 20  
  
&ELECTRONS
  mixing_beta = 0.7
  conv_thr = 1.0d-8
/
ATOMIC_SPECIES
 Si  28.0855  Si.upf
 Ge  72.6300  Ge.upf
ATOMIC_POSITIONS (crystal)
 Si  0.333333333  0.666666666  0.4806761002
 Ge  0.666666666  0.333333333  0.5193238998
K_POINTS (crystal_b)
 4
 0.0000 0.0000 0.0000 40  ! Gamma
 0.3333 0.3333 0.0000 40  ! K
 0.5000 0.0000 0.0000 40  ! M
 0.0000 0.0000 0.0000 40  ! Gamma
